c numero: 18
c nombre: n-30-d-0.1
c densidad: 0.1
p edges 30 46
e 1 10
e 1 11
e 1 14
e 1 19
e 1 27
e 2 4
e 2 6
e 2 18
e 3 6
e 3 9
e 3 11
e 3 16
e 3 21
e 4 12
e 4 13
e 4 16
e 5 11
e 8 18
e 8 25
e 8 27
e 9 15
e 9 21
e 9 29
e 10 11
e 10 20
e 11 23
e 13 14
e 13 25
e 14 18
e 15 17
e 15 20
e 15 26
e 16 22
e 16 23
e 16 30
e 18 25
e 18 28
e 19 22
e 19 29
e 20 21
e 21 25
e 23 30
e 24 26
e 24 29
e 25 26
e 27 29
